id: 1118
name: mzzv11
group: miplib2010
method: 1

Gurobi 7.0.2 (linux64, Matlab) logging started Fri Apr 20 03:01:01 2018


Gurobi 7.0.2 (linux64) logging started Fri Apr 20 03:01:01 2018

Optimize a model with 9499 rows, 10240 columns and 134603 nonzeros
Coefficient statistics:
  Matrix range     [1e+00, 2e+03]
  Objective range  [8e+00, 2e+03]
  Bounds range     [1e+00, 2e+02]
  RHS range        [1e+00, 1e+00]
Presolve removed 777 rows and 932 columns
Presolve time: 0.05s
Presolved: 8722 rows, 9308 columns, 134028 nonzeros

Iteration    Objective       Primal Inf.    Dual Inf.      Time
       0   -2.6978000e+04   2.208215e+02   0.000000e+00      0s
    6428   -2.2945240e+04   0.000000e+00   0.000000e+00      1s

Solved in 6428 iterations and 1.11 seconds
Optimal objective -2.294523963e+04
status: OPTIMAL
